Project/conv_pe_proof_prove/model/design_smt2.smt2
; SMT-LIBv2 description generated by Yosys 0.63+87 (git sha1 2f1cdc2df, clang++ 18.1.8 -fPIC -O3)
; yosys-smt2-module conv_pe
(declare-sort |conv_pe_s| 0)
(declare-fun |conv_pe_is| (|conv_pe_s|) Bool)
; yosys-smt2-anyinit conv_pe#0 32 conv_pe.v:111.5-167.8
; yosys-smt2-witness {"offset": 0, "path": ["\\accum_r"], "smtname": 0, "smtoffset": 0, "type": "init", "width": 32}
(declare-fun |conv_pe#0| (|conv_pe_s|) (_ BitVec 32)) ; \accum_r
; yosys-smt2-register accum_r 32
; yosys-smt2-wire accum_r 32
(define-fun |conv_pe_n accum_r| ((state |conv_pe_s|)) (_ BitVec 32) (|conv_pe#0| state))
(declare-fun |conv_pe#1| (|conv_pe_s|) Bool) ; \clk
; yosys-smt2-input clk 1
; yosys-smt2-wire clk 1
; yosys-smt2-clock clk posedge
; yosys-smt2-witness {"offset": 0, "path": ["\\clk"], "smtname": "clk", "smtoffset": 0, "type": "posedge", "width": 1}
; yosys-smt2-witness {"offset": 0, "path": ["\\clk"], "smtname": "clk", "smtoffset": 0, "type": "input", "width": 1}
(define-fun |conv_pe_n clk| ((state |conv_pe_s|)) Bool (|conv_pe#1| state))
; yosys-smt2-anyinit conv_pe#2 4 conv_pe.v:111.5-167.8
; yosys-smt2-witness {"offset": 0, "path": ["\\cnt_r"], "smtname": 2, "smtoffset": 0, "type": "init", "width": 4}
(declare-fun |conv_pe#2| (|conv_pe_s|) (_ BitVec 4)) ; \cnt_r
; yosys-smt2-register cnt_r 4
; yosys-smt2-wire cnt_r 4
(define-fun |conv_pe_n cnt_r| ((state |conv_pe_s|)) (_ BitVec 4) (|conv_pe#2| state))
; yosys-smt2-anyinit conv_pe#3 2 conv_pe.v:111.5-167.8
; yosys-smt2-witness {"offset": 0, "path": ["\\state_r"], "smtname": 3, "smtoffset": 0, "type": "init", "width": 2}
(declare-fun |conv_pe#3| (|conv_pe_s|) (_ BitVec 2)) ; \state_r
(define-fun |conv_pe#4| ((state |conv_pe_s|)) Bool (= (|conv_pe#3| state) #b01)) ; \conv_busy
; yosys-smt2-output conv_busy 1
; yosys-smt2-wire conv_busy 1
(define-fun |conv_pe_n conv_busy| ((state |conv_pe_s|)) Bool (|conv_pe#4| state))
(define-fun |conv_pe#5| ((state |conv_pe_s|)) Bool (= (|conv_pe#3| state) #b10)) ; \conv_done
; yosys-smt2-output conv_done 1
; yosys-smt2-wire conv_done 1
(define-fun |conv_pe_n conv_done| ((state |conv_pe_s|)) Bool (|conv_pe#5| state))
; yosys-smt2-anyinit conv_pe#6 32 conv_pe.v:111.5-167.8
; yosys-smt2-witness {"offset": 0, "path": ["\\result_r"], "smtname": 6, "smtoffset": 0, "type": "init", "width": 32}
(declare-fun |conv_pe#6| (|conv_pe_s|) (_ BitVec 32)) ; \result_r
; yosys-smt2-output conv_result 32
; yosys-smt2-wire conv_result 32
(define-fun |conv_pe_n conv_result| ((state |conv_pe_s|)) (_ BitVec 32) (|conv_pe#6| state))
(declare-fun |conv_pe#7| (|conv_pe_s|) Bool) ; \conv_start
; yosys-smt2-input conv_start 1
; yosys-smt2-wire conv_start 1
; yosys-smt2-witness {"offset": 0, "path": ["\\conv_start"], "smtname": "conv_start", "smtoffset": 0, "type": "input", "width": 1}
(define-fun |conv_pe_n conv_start| ((state |conv_pe_s|)) Bool (|conv_pe#7| state))
; yosys-smt2-output conv_status 2
; yosys-smt2-wire conv_status 2
(define-fun |conv_pe_n conv_status| ((state |conv_pe_s|)) (_ BitVec 2) (|conv_pe#3| state))
(declare-fun |conv_pe#8| (|conv_pe_s|) Bool) ; \init
; yosys-smt2-input init 1
; yosys-smt2-wire init 1
; yosys-smt2-witness {"offset": 0, "path": ["\\init"], "smtname": "init", "smtoffset": 0, "type": "input", "width": 1}
(define-fun |conv_pe_n init| ((state |conv_pe_s|)) Bool (|conv_pe#8| state))
; yosys-smt2-anyinit conv_pe#9 1 conv_pe.v:111.5-167.8
; yosys-smt2-witness {"offset": 0, "path": ["\\init_r"], "smtname": 9, "smtoffset": 0, "type": "init", "width": 1}
(declare-fun |conv_pe#9| (|conv_pe_s|) (_ BitVec 1)) ; \init_r
; yosys-smt2-register init_r 1
; yosys-smt2-wire init_r 1
(define-fun |conv_pe_n init_r| ((state |conv_pe_s|)) Bool (= ((_ extract 0 0) (|conv_pe#9| state)) #b1))
; yosys-smt2-anyinit conv_pe#10 32 conv_pe.v:111.5-167.8
; yosys-smt2-witness {"offset": 0, "path": ["\\op_a_r"], "smtname": 10, "smtoffset": 0, "type": "init", "width": 32}
(declare-fun |conv_pe#10| (|conv_pe_s|) (_ BitVec 32)) ; \op_a_r
; yosys-smt2-register op_a_r 32
; yosys-smt2-wire op_a_r 32
(define-fun |conv_pe_n op_a_r| ((state |conv_pe_s|)) (_ BitVec 32) (|conv_pe#10| state))
; yosys-smt2-anyinit conv_pe#11 32 conv_pe.v:111.5-167.8
; yosys-smt2-witness {"offset": 0, "path": ["\\op_b_r"], "smtname": 11, "smtoffset": 0, "type": "init", "width": 32}
(declare-fun |conv_pe#11| (|conv_pe_s|) (_ BitVec 32)) ; \op_b_r
; yosys-smt2-register op_b_r 32
; yosys-smt2-wire op_b_r 32
(define-fun |conv_pe_n op_b_r| ((state |conv_pe_s|)) (_ BitVec 32) (|conv_pe#11| state))
(declare-fun |conv_pe#12| (|conv_pe_s|) (_ BitVec 32)) ; \operand_a
; yosys-smt2-input operand_a 32
; yosys-smt2-wire operand_a 32
; yosys-smt2-witness {"offset": 0, "path": ["\\operand_a"], "smtname": "operand_a", "smtoffset": 0, "type": "input", "width": 32}
(define-fun |conv_pe_n operand_a| ((state |conv_pe_s|)) (_ BitVec 32) (|conv_pe#12| state))
(declare-fun |conv_pe#13| (|conv_pe_s|) (_ BitVec 32)) ; \operand_b
; yosys-smt2-input operand_b 32
; yosys-smt2-wire operand_b 32
; yosys-smt2-witness {"offset": 0, "path": ["\\operand_b"], "smtname": "operand_b", "smtoffset": 0, "type": "input", "width": 32}
(define-fun |conv_pe_n operand_b| ((state |conv_pe_s|)) (_ BitVec 32) (|conv_pe#13| state))
(define-fun |conv_pe#14| ((state |conv_pe_s|)) (_ BitVec 32) (bvmul (|conv_pe#10| state) (|conv_pe#11| state))) ; \product
; yosys-smt2-wire product 32
(define-fun |conv_pe_n product| ((state |conv_pe_s|)) (_ BitVec 32) (|conv_pe#14| state))
; yosys-smt2-register result_r 32
; yosys-smt2-wire result_r 32
(define-fun |conv_pe_n result_r| ((state |conv_pe_s|)) (_ BitVec 32) (|conv_pe#6| state))
(declare-fun |conv_pe#15| (|conv_pe_s|) Bool) ; \rst_n
; yosys-smt2-input rst_n 1
; yosys-smt2-wire rst_n 1
; yosys-smt2-witness {"offset": 0, "path": ["\\rst_n"], "smtname": "rst_n", "smtoffset": 0, "type": "input", "width": 1}
(define-fun |conv_pe_n rst_n| ((state |conv_pe_s|)) Bool (|conv_pe#15| state))
; yosys-smt2-register state_r 2
; yosys-smt2-wire state_r 2
(define-fun |conv_pe_n state_r| ((state |conv_pe_s|)) (_ BitVec 2) (|conv_pe#3| state))
(define-fun |conv_pe#16| ((state |conv_pe_s|)) (_ BitVec 1) (bvnot (ite (|conv_pe#1| state) #b1 #b0))) ; $auto$rtlil.cc:3197:Not$94
; yosys-smt2-assume 0 $auto$formalff.cc:987:execute$95
(define-fun |conv_pe_u 0| ((state |conv_pe_s|)) Bool (or (= ((_ extract 0 0) (|conv_pe#16| state)) #b1) (not true))) ; $auto$formalff.cc:987:execute$95
(define-fun |conv_pe#17| ((state |conv_pe_s|)) (_ BitVec 32) (ite (|conv_pe#7| state) (|conv_pe#13| state) (|conv_pe#11| state))) ; $procmux$22_Y
(define-fun |conv_pe#18| ((state |conv_pe_s|)) Bool (not (or  (= ((_ extract 0 0) (|conv_pe#3| state)) #b1) (= ((_ extract 1 1) (|conv_pe#3| state)) #b1)))) ; $procmux$15_CMP
(define-fun |conv_pe#19| ((state |conv_pe_s|)) (_ BitVec 32) (ite (|conv_pe#18| state) (|conv_pe#17| state) (|conv_pe#11| state))) ; $procmux$24_Y
(define-fun |conv_pe#20| ((state |conv_pe_s|)) (_ BitVec 32) (ite (|conv_pe#15| state) (|conv_pe#19| state) #b00000000000000000000000000000000)) ; $0\op_b_r[31:0]
(define-fun |conv_pe#21| ((state |conv_pe_s|)) (_ BitVec 32) (ite (|conv_pe#7| state) (|conv_pe#12| state) (|conv_pe#10| state))) ; $procmux$32_Y
(define-fun |conv_pe#22| ((state |conv_pe_s|)) (_ BitVec 32) (ite (|conv_pe#18| state) (|conv_pe#21| state) (|conv_pe#10| state))) ; $procmux$34_Y
(define-fun |conv_pe#23| ((state |conv_pe_s|)) (_ BitVec 32) (ite (|conv_pe#15| state) (|conv_pe#22| state) #b00000000000000000000000000000000)) ; $0\op_a_r[31:0]
(define-fun |conv_pe#24| ((state |conv_pe_s|)) (_ BitVec 1) (ite (|conv_pe#7| state) (ite (|conv_pe#8| state) #b1 #b0) (|conv_pe#9| state))) ; $procmux$12_Y
(define-fun |conv_pe#25| ((state |conv_pe_s|)) (_ BitVec 1) (ite (|conv_pe#18| state) (|conv_pe#24| state) (|conv_pe#9| state))) ; $procmux$14_Y
(define-fun |conv_pe#26| ((state |conv_pe_s|)) (_ BitVec 1) (ite (|conv_pe#15| state) (|conv_pe#25| state) #b0)) ; $0\init_r[0:0]
(define-fun |conv_pe#27| ((state |conv_pe_s|)) (_ BitVec 32) (bvadd (|conv_pe#0| state) (|conv_pe#14| state))) ; $add$conv_pe.v:146$5_Y
(define-fun |conv_pe#28| ((state |conv_pe_s|)) (_ BitVec 32) (ite (= ((_ extract 0 0) (|conv_pe#9| state)) #b1) (|conv_pe#14| state) (|conv_pe#27| state))) ; $procmux$56_Y
(define-fun |conv_pe#29| ((state |conv_pe_s|)) Bool (= (|conv_pe#2| state) #b0011)) ; $eq$conv_pe.v:141$4_Y
(define-fun |conv_pe#30| ((state |conv_pe_s|)) (_ BitVec 32) (ite (|conv_pe#29| state) (|conv_pe#28| state) (|conv_pe#6| state))) ; $procmux$58_Y
(define-fun |conv_pe#31| ((state |conv_pe_s|)) (_ BitVec 32) (ite (|conv_pe#4| state) (|conv_pe#30| state) (|conv_pe#6| state))) ; $procmux$60_Y
(define-fun |conv_pe#32| ((state |conv_pe_s|)) (_ BitVec 32) (ite (|conv_pe#15| state) (|conv_pe#31| state) #b00000000000000000000000000000000)) ; $0\result_r[31:0]
(define-fun |conv_pe#33| ((state |conv_pe_s|)) (_ BitVec 2) (ite (|conv_pe#29| state) #b10 (|conv_pe#3| state))) ; $procmux$74_Y
(define-fun |conv_pe#34| ((state |conv_pe_s|)) (_ BitVec 2) (ite (|conv_pe#7| state) #b01 (|conv_pe#3| state))) ; $procmux$78_Y
(define-fun |conv_pe#35| ((state |conv_pe_s|)) (_ BitVec 2) (ite (|conv_pe#18| state) (|conv_pe#34| state) (ite (|conv_pe#4| state) (|conv_pe#33| state) #b00))) ; $procmux$76_Y
(define-fun |conv_pe#36| ((state |conv_pe_s|)) (_ BitVec 2) (ite (|conv_pe#15| state) (|conv_pe#35| state) #b00)) ; $0\state_r[1:0]
(define-fun |conv_pe#37| ((state |conv_pe_s|)) (_ BitVec 4) (bvadd (|conv_pe#2| state) #b0001)) ; $add$conv_pe.v:150$6_Y
(define-fun |conv_pe#38| ((state |conv_pe_s|)) (_ BitVec 4) (ite (|conv_pe#29| state) (|conv_pe#2| state) (|conv_pe#37| state))) ; $procmux$42_Y
(define-fun |conv_pe#39| ((state |conv_pe_s|)) (_ BitVec 4) (ite (|conv_pe#7| state) #b0000 (|conv_pe#2| state))) ; $procmux$46_Y
(define-fun |conv_pe#40| ((state |conv_pe_s|)) (_ BitVec 4) (ite (|conv_pe#18| state) (|conv_pe#39| state) (ite (|conv_pe#4| state) (|conv_pe#38| state) (|conv_pe#2| state)))) ; $procmux$44_Y
(define-fun |conv_pe#41| ((state |conv_pe_s|)) (_ BitVec 4) (ite (|conv_pe#15| state) (|conv_pe#40| state) #b0000)) ; $0\cnt_r[3:0]
(define-fun |conv_pe#42| ((state |conv_pe_s|)) (_ BitVec 32) (ite (|conv_pe#5| state) (|conv_pe#6| state) (|conv_pe#0| state))) ; $procmux$66_Y
(define-fun |conv_pe#43| ((state |conv_pe_s|)) (_ BitVec 32) (ite (|conv_pe#15| state) (|conv_pe#42| state) #b00000000000000000000000000000000)) ; $0\accum_r[31:0]
(define-fun |conv_pe_a| ((state |conv_pe_s|)) Bool true)
(define-fun |conv_pe_u| ((state |conv_pe_s|)) Bool 
  (|conv_pe_u 0| state)
)
(define-fun |conv_pe_i| ((state |conv_pe_s|)) Bool true)
(define-fun |conv_pe_h| ((state |conv_pe_s|)) Bool true)
(define-fun |conv_pe_t| ((state |conv_pe_s|) (next_state |conv_pe_s|)) Bool (and
  (= (|conv_pe#20| state) (|conv_pe#11| next_state)) ; $procdff$89 \op_b_r
  (= (|conv_pe#23| state) (|conv_pe#10| next_state)) ; $procdff$88 \op_a_r
  (= (|conv_pe#26| state) (|conv_pe#9| next_state)) ; $procdff$90 \init_r
  (= (|conv_pe#32| state) (|conv_pe#6| next_state)) ; $procdff$86 \result_r
  (= (|conv_pe#36| state) (|conv_pe#3| next_state)) ; $procdff$84 \state_r
  (= (|conv_pe#41| state) (|conv_pe#2| next_state)) ; $procdff$87 \cnt_r
  (= (|conv_pe#43| state) (|conv_pe#0| next_state)) ; $procdff$85 \accum_r
)) ; end of module conv_pe
; yosys-smt2-topmod conv_pe
; end of yosys output
